Version identifier: 20.1.0.0 | 2020-11-10 | 9bedb6d68
Tried aggregator 3 times.
MIP Presolve eliminated 873 rows and 491 columns.
MIP Presolve modified 1745 coefficients.
Aggregator did 101 substitutions.
Reduced MIP has 732 rows, 615 columns, and 2322 nonzeros.
Reduced MIP has 166 binaries, 449 generals, 0 SOSs, and 0 indicators.
Presolve time = 0.01 sec. (4.50 ticks)
Found incumbent of value 863.000000 after 0.02 sec. (6.59 ticks)
Probing fixed 20 vars, tightened 166 bounds.
Probing time = 0.00 sec. (0.57 ticks)
Tried aggregator 2 times.
Detecting symmetries...
MIP Presolve eliminated 297 rows and 24 columns.
MIP Presolve modified 54 coefficients.
Aggregator did 6 substitutions.
Reduced MIP has 429 rows, 585 columns, and 1399 nonzeros.
Reduced MIP has 213 binaries, 372 generals, 0 SOSs, and 0 indicators.
Presolve time = 0.00 sec. (2.00 ticks)
Probing time = 0.00 sec. (0.11 ticks)
Clique table members: 21.
MIP emphasis: balance optimality and feasibility.
MIP search method: dynamic search.
Parallel mode: deterministic, using up to 24 threads.
Root relaxation solution time = 0.00 sec. (1.33 ticks)

        Nodes                                         Cuts/
   Node  Left     Objective  IInf  Best Integer    Best Bound    ItCnt     Gap

*     0+    0                          863.0000        0.0000           100.00%
*     0+    0                           34.0000        0.0000           100.00%
      0     0        0.1667    39       34.0000        0.1667      157   99.51%
      0     0        2.0000   104       34.0000      Cuts: 71      242   94.12%
*     0+    0                           10.0000        2.0000            80.00%
      0     0        2.0000   142       10.0000      Cuts: 62      333   80.00%
      0     0        2.0357   180       10.0000      Cuts: 16      457   79.64%
      0     0        2.7143   162       10.0000      Cuts: 87      528   72.86%
      0     0        2.7143   166       10.0000      Cuts: 45      550   72.86%
*     0+    0                            8.0000        2.7143            66.07%
      0     0        cutoff              8.0000        8.0000      550    0.00%
Elapsed time = 0.13 sec. (63.50 ticks, tree = 0.01 MB, solutions = 4)

Cover cuts applied:  4
Implied bound cuts applied:  15
Flow cuts applied:  1
Mixed integer rounding cuts applied:  8
Zero-half cuts applied:  57
Gomory fractional cuts applied:  5

Root node processing (before b&c):
  Real time             =    0.13 sec. (63.57 ticks)
Parallel b&c, 24 threads:
  Real time             =    0.00 sec. (0.00 ticks)
  Sync time (average)   =    0.00 sec.
  Wait time (average)   =    0.00 sec.
                          ------------
Total (root+branch&cut) =    0.13 sec. (63.57 ticks)

Solution status = Optimal
Solution LB = 8
Solution UB = 8
Runtime = 0.142086 seconds
	Command being timed: "/home/min/git_repos/CS598MEBProject/CNT-ILP/build/cnt -s 2 ./output/k6_n20/simC_c1_k6_n20_u2_s1_del04.input-left.cnp"
	User time (seconds): 0.91
	System time (seconds): 0.05
	Percent of CPU this job got: 544%
	Elapsed (wall clock) time (h:mm:ss or m:ss): 0:00.17
	Average shared text size (kbytes): 0
	Average unshared data size (kbytes): 0
	Average stack size (kbytes): 0
	Average total size (kbytes): 0
	Maximum resident set size (kbytes): 51160
	Average resident set size (kbytes): 0
	Major (requiring I/O) page faults: 0
	Minor (reclaiming a frame) page faults: 9791
	Voluntary context switches: 1531
	Involuntary context switches: 94
	Swaps: 0
	File system inputs: 0
	File system outputs: 16
	Socket messages sent: 0
	Socket messages received: 0
	Signals delivered: 0
	Page size (bytes): 4096
	Exit status: 0
